000 000 000 000 000 000 000 001 001 001 000 001 002 001 001 001 002 002 002 002 001 001 006 004 003 003 006 005 003 003 004
000 000 000 000 000 000 000 000 000 000 001 001 001 001 001 001 001 002 001 001 001 001 004 005 003 003 002 004 004 005 003
000 000 000 000 000 000 000 000 000 000 000 000 000 001 001 001 001 001 001 001 001 001 003 002 003 002 003 003 005 006 003
000 000 000 000 000 000 000 000 000 000 000 000 000 000 001 002 000 001 001 001 001 001 001 002 001 002 004 005 005 009 002
000 000 000 000 000 000 000 000 000 000 000 000 000 000 000 002 001 000 000 001 001 000 001 001 002 002 003 004 007 005 002
000 000 000 000 000 000 000 000 000 000 000 001 000 000 001 002 002 001 001 001 000 000 000 000 001 002 003 003 006 004 002
000 000 000 000 000 000 000 000 000 000 000 001 001 001 001 002 002 001 001 001 001 000 000 000 001 002 002 003 005 001 001
000 000 000 000 000 000 000 000 000 000 000 001 001 001 001 001 002 001 001 000 000 000 000 000 001 001 001 -99 -99 001 001
000 000 000 000 000 000 000 000 000 000 000 001 002 001 001 001 001 000 000 000 000 000 000 001 001 001 001 000 -99 000 001
000 000 000 000 000 000 000 000 000 000 001 001 001 001 001 001 001 001 000 000 000 000 000 000 001 001 001 000 000 000 001
000 000 000 000 000 000 000 000 000 000 001 001 001 001 001 001 001 001 000 000 000 000 -99 000 000 000 000 000 000 000 001
000 000 000 000 000 000 000 000 000 000 001 001 000 001 001 000 000 000 000 000 000 000 -99 -99 000 -99 000 000 000 000 001
000 000 000 000 000 000 000 000 000 001 001 001 000 001 002 000 000 000 000 000 000 000 -99 -99 -99 -99 000 000 000 000 000
000 000 000 000 000 000 000 000 000 001 001 001 001 000 000 000 000 000 000 000 000 000 -99 000 000 000 000 000 000 000 000
000 -99 000 000 000 000 000 000 000 000 000 000 000 000 000 000 000 000 000 000 000 000 -99 000 000 000 000 000 -99 -99 000
000 -99 000 000 000 000 000 000 000 000 000 000 000 000 000 000 000 000 000 -99 -99 000 -99 000 000 000 000 000 000 000 000
-99 -99 -99 -99 000 000 000 000 000 000 000 000 000 000 000 000 000 -99 -99 -99 -99 -99 000 000 000 000 000 000 000 -99 000
000 -99 000 -99 -99 -99 000 000 000 000 000 000 -99 -99 000 -99 000 000 -99 -99 -99 -99 000 000 000 000 000 000 000 000 000
000 000 000 000 -99 -99 000 000 000 000 000 000 -99 -99 000 -99 000 000 000 -99 -99 000 000 -99 000 000 000 -99 -99 000 000
000 000 000 000 -99 -99 -99 000 000 000 000 000 -99 -99 -99 -99 000 000 000 -99 000 000 000 -99 000 000 000 -99 -99 000 000
000 000 000 000 000 -99 -99 000 000 000 000 000 -99 000 000 000 000 000 000 000 000 000 000 -99 -99 -99 -99 -99 -99 -99 -99
000 000 000 000 000 000 -99 000 000 000 -99 000 000 000 000 000 000 000 000 000 000 000 000 -99 -99 -99 -99 -99 -99 -99 -99
000 000 000 000 000 000 000 000 000 000 -99 000 000 000 000 000 000 000 000 000 000 000 000 -99 -99 -99 -99 -99 -99 -99 -99
000 000 000 000 000 000 000 000 000 -99 000 000 000 000 001 000 000 000 000 000 000 000 000 -99 -99 -99 -99 -99 -99 -99 000
000 000 000 000 000 000 000 000 000 000 000 000 000 000 001 000 000 000 000 000 000 000 000 -99 -99 -99 -99 -99 -99 -99 000
000 000 000 000 000 000 000 000 000 000 000 000 000 000 000 000 000 000 000 000 000 000 -99 -99 -99 -99 -99 -99 -99 -99 000
000 000 000 000 000 000 000 000 000 000 -99 000 000 000 001 000 000 000 000 000 000 000 000 -99 -99 -99 -99 -99 -99 -99 000
000 000 000 000 000 000 000 000 000 000 -99 -99 000 001 000 000 000 000 000 000 000 000 -99 -99 -99 -99 -99 -99 -99 -99 000
000 000 000 000 000 000 000 000 000 000 -99 -99 000 000 000 000 000 000 000 -99 000 000 -99 -99 -99 -99 -99 -99 -99 -99 000
000 000 000 000 000 000 -99 000 000 000 000 -99 000 000 000 000 000 000 000 -99 -99 000 -99 -99 -99 -99 -99 -99 -99 -99 000
000 000 000 000 000 -99 000 000 000 000 000 -99 000 000 000 000 000 000 000 -99 -99 000 -99 -99 -99 -99 -99 -99 -99 -99 000
000 000 000 000 000 000 000 000 000 -99 -99 -99 -99 000 000 -99 000 000 000 -99 -99 -99 -99 -99 -99 -99 -99 -99 -99 -99 000
000 000 000 000 000 000 000 000 000 000 -99 -99 -99 -99 000 000 000 000 000 -99 -99 -99 -99 -99 000 -99 -99 -99 -99 -99 000
000 000 000 000 000 000 000 000 000 000 -99 -99 -99 000 000 000 000 000 000 -99 -99 000 000 -99 000 000 000 000 000 -99 000
000 000 000 000 000 000 000 000 000 000 000 000 000 000 000 000 000 -99 -99 000 000 000 000 000 000 000 000 000 000 -99 000
000 000 000 000 000 000 000 000 000 000 000 000 000 000 000 000 000 000 000 000 000 000 000 -99 000 000 000 000 000 000 000
000 000 000 000 000 000 000 000 000 000 000 -99 000 000 000 000 000 -99 000 000 000 000 000 000 000 000 000 000 000 000 000
000 000 000 000 000 000 -99 000 000 000 -99 000 000 000 000 000 000 -99 000 000 000 000 000 000 000 000 000 000 -99 000 000
000 000 000 000 000 000 -99 000 000 -99 -99 000 000 000 000 000 -99 000 -99 000 000 000 000 000 000 000 000 000 000 000 -99
000 000 000 000 000 -99 -99 000 -99 -99 000 000 000 000 000 000 000 000 000 -99 000 -99 000 000 000 000 000 000 000 000 -99
000 000 000 000 000 -99 -99 000 -99 -99 000 000 000 000 000 000 000 000 000 000 000 -99 000 000 000 000 000 000 000 000 -99
000 000 000 000 -99 -99 -99 000 000 -99 000 000 000 000 000 000 000 000 000 000 000 000 000 000 000 000 -99 000 000 000 -99
000 000 -99 -99 -99 000 -99 -99 -99 -99 -99 000 000 000 000 000 000 000 000 000 000 000 000 000 000 000 -99 000 000 -99 -99
000 -99 -99 -99 -99 000 -99 -99 -99 -99 -99 000 000 000 000 000 000 000 000 000 000 000 000 000 000 -99 -99 000 000 -99 -99
000 000 -99 -99 000 -99 -99 -99 -99 000 000 000 000 000 000 000 000 000 000 000 000 000 -99 000 -99 -99 000 000 000 -99 -99
000 -99 -99 -99 -99 -99 -99 -99 000 000 -99 000 000 000 000 000 000 000 000 000 -99 000 -99 000 000 000 000 000 -99 -99 -99
000 -99 -99 -99 -99 -99 -99 -99 -99 -99 -99 000 000 000 000 000 -99 000 000 000 000 000 000 000 -99 000 000 000 -99 -99 -99
-99 -99 -99 -99 -99 -99 -99 -99 -99 -99 000 000 000 000 -99 -99 -99 000 000 -99 000 000 000 -99 -99 000 000 000 -99 -99 -99
-99 -99 001 -99 -99 -99 -99 -99 -99 000 000 000 -99 -99 -99 -99 -99 000 000 -99 000 000 000 -99 000 000 000 000 -99 -99 -99
-99 -99 -99 000 -99 -99 -99 -99 -99 000 000 -99 -99 -99 -99 -99 000 000 000 000 000 000 -99 -99 -99 000 000 000 -99 -99 -99
-99 -99 -99 -99 -99 -99 -99 -99 -99 000 000 -99 -99 -99 -99 -99 000 -99 -99 000 000 000 -99 -99 -99 000 000 -99 -99 -99 -99
-99 -99 -99 -99 -99 -99 -99 -99 -99 000 -99 -99 -99 -99 -99 -99 -99 000 000 000 000 -99 -99 -99 -99 000 -99 -99 -99 -99 -99
-99 -99 -99 -99 -99 -99 -99 -99 -99 -99 -99 -99 -99 -99 -99 -99 -99 000 000 000 000 -99 -99 -99 000 -99 -99 -99 -99 -99 -99
-99 -99 -99 -99 -99 -99 -99 -99 -99 -99 -99 -99 -99 -99 -99 -99 -99 000 000 000 -99 -99 -99 -99 -99 -99 -99 -99 -99 -99 -99
-99 -99 -99 -99 -99 -99 -99 -99 -99 -99 -99 -99 -99 -99 -99 -99 000 000 000 -99 -99 -99 -99 -99 -99 -99 -99 -99 -99 -99 -99
